(set-logic QF_UF)
(declare-fun A0 () Bool)
(declare-fun A1 () Bool)
(declare-fun A2 () Bool)
(declare-fun A3 () Bool)
(declare-fun A4 () Bool)
(declare-fun A5 () Bool)
(declare-fun A6 () Bool)
(declare-fun A7 () Bool)
(declare-fun A9 () Bool)
(declare-fun A10 () Bool)
(declare-fun A11 () Bool)
(declare-fun A12 () Bool)
(declare-fun A13 () Bool)
(declare-fun A14 () Bool)
(declare-fun A15 () Bool)
(declare-fun A16 () Bool)
(declare-fun A17 () Bool)
(declare-fun A18 () Bool)
(declare-fun A19 () Bool)
(declare-fun A20 () Bool)
(declare-fun A21 () Bool)
(declare-fun A22 () Bool)
(declare-fun A23 () Bool)
(declare-fun A24 () Bool)
(assert (let ((.def_0 (and A9 A13))) (let ((.def_1 (not A14))) (let ((.def_2 (not A17))) (let ((.def_3 (and .def_2 .def_1))) (let ((.def_4 (not .def_3))) (let ((.def_5 (or .def_4 .def_0))) (let ((.def_6 (not .def_5))) (let ((.def_7 (or A14 .def_1))) (let ((.def_8 (not .def_7))) (let ((.def_9 (or A10 A2))) (let ((.def_10 (and .def_9 .def_8))) (let ((.def_11 (and .def_10 .def_6))) (let ((.def_12 (not A0))) (let ((.def_13 (and .def_12 A19))) (let ((.def_14 (not .def_13))) (let ((.def_15 (not A2))) (let ((.def_16 (or .def_12 .def_15))) (let ((.def_17 (not .def_16))) (let ((.def_18 (or .def_17 .def_14))) (let ((.def_19 (not .def_18))) (let ((.def_20 (not A1))) (let ((.def_21 (and A22 .def_20))) (let ((.def_22 (not A13))) (let ((.def_23 (or .def_20 .def_22))) (let ((.def_24 (or .def_23 .def_21))) (let ((.def_25 (and .def_24 .def_19))) (let ((.def_26 (or .def_25 .def_11))) (let ((.def_27 (not .def_26))) (let ((.def_28 (and A16 .def_2))) (let ((.def_29 (not A24))) (let ((.def_30 (not A11))) (let ((.def_31 (and .def_30 .def_29))) (let ((.def_32 (not .def_31))) (let ((.def_33 (and .def_32 .def_28))) (let ((.def_34 (not A6))) (let ((.def_35 (or A4 .def_34))) (let ((.def_36 (not .def_35))) (let ((.def_37 (and A3 A17))) (let ((.def_38 (or .def_37 .def_36))) (let ((.def_39 (not .def_38))) (let ((.def_40 (or .def_39 .def_33))) (let ((.def_41 (not A3))) (let ((.def_42 (not A4))) (let ((.def_43 (and .def_42 .def_41))) (let ((.def_44 (not .def_43))) (let ((.def_45 (and .def_15 A3))) (let ((.def_46 (not .def_45))) (let ((.def_47 (or .def_46 .def_44))) (let ((.def_48 (not .def_47))) (let ((.def_49 (not A22))) (let ((.def_50 (or .def_49 A2))) (let ((.def_51 (not A21))) (let ((.def_52 (and .def_2 .def_51))) (let ((.def_53 (not .def_52))) (let ((.def_54 (= .def_53 .def_50))) (let ((.def_55 (not .def_54))) (let ((.def_56 (and .def_55 .def_48))) (let ((.def_57 (not .def_56))) (let ((.def_58 (or .def_57 .def_40))) (let ((.def_59 (and .def_58 .def_27))) (let ((.def_60 (and A14 A20))) (let ((.def_61 (or A4 A13))) (let ((.def_62 (not .def_61))) (let ((.def_63 (= .def_62 .def_60))) (let ((.def_64 (not A7))) (let ((.def_65 (and .def_64 A0))) (let ((.def_66 (not .def_65))) (let ((.def_67 (and .def_22 .def_51))) (let ((.def_68 (not .def_67))) (let ((.def_69 (and .def_68 .def_66))) (let ((.def_70 (not .def_69))) (let ((.def_71 (or .def_70 .def_63))) (let ((.def_72 (not .def_71))) (let ((.def_73 (and A18 A24))) (let ((.def_74 (not A5))) (let ((.def_75 (= .def_74 A14))) (let ((.def_76 (not .def_75))) (let ((.def_77 (and .def_76 .def_73))) (let ((.def_78 (not .def_77))) (let ((.def_79 (or .def_64 .def_30))) (let ((.def_80 (not .def_79))) (let ((.def_81 (not A20))) (let ((.def_82 (or .def_81 .def_12))) (let ((.def_83 (and .def_82 .def_80))) (let ((.def_84 (not .def_83))) (let ((.def_85 (and .def_84 .def_78))) (let ((.def_86 (and .def_85 .def_72))) (let ((.def_87 (not .def_86))) (let ((.def_88 (and A0 .def_12))) (let ((.def_89 (not A12))) (let ((.def_90 (or .def_89 A0))) (let ((.def_91 (and .def_90 .def_88))) (let ((.def_92 (not .def_91))) (let ((.def_93 (and A12 .def_34))) (let ((.def_94 (not A19))) (let ((.def_95 (and A23 .def_94))) (let ((.def_96 (not .def_95))) (let ((.def_97 (= .def_96 .def_93))) (let ((.def_98 (not .def_97))) (let ((.def_99 (or .def_98 .def_92))) (let ((.def_100 (or A13 A15))) (let ((.def_101 (not .def_100))) (let ((.def_102 (or A20 A18))) (let ((.def_103 (or .def_102 .def_101))) (let ((.def_104 (or .def_49 A9))) (let ((.def_105 (and A10 A15))) (let ((.def_106 (not .def_105))) (let ((.def_107 (or .def_106 .def_104))) (let ((.def_108 (not .def_107))) (let ((.def_109 (or .def_108 .def_103))) (let ((.def_110 (or .def_109 .def_99))) (let ((.def_111 (not .def_110))) (let ((.def_112 (or .def_111 .def_87))) (let ((.def_113 (or .def_112 .def_59))) .def_113)))))))))))))))))))))))))))))))))))))))))))))))))))))))))))))))))))))))))))))))))))))))))))))))))))))))))))))))))))
(check-sat)
